PARAMETER_FILE = even/even_uncomplete_graph_new/de/par/random172.par
PROBLEM_FILE = even/even_uncomplete_graph_new/de/mat/random172.tsp
Successes/Runs = 0/10
Cost.min = 972, Cost.avg = 972.00, Cost.max = 972
Gap.min = 0.0000%, Gap.avg = 0.0000%, Gap.max = 0.0000%
Trials.min = 1000, Trials.avg = 1000.0, Trials.max = 1000
Time.min = 2.15 sec., Time.avg = 3.16 sec., Time.max = 4.86 sec.
Time.total = 31.73 sec.
